(declare-fun temp534_2 () (_ BitVec 64))
(declare-fun temp534_1 () (_ BitVec 64))
(declare-fun temp534_4 () (_ BitVec 64))
(declare-fun temp534_3 () (_ BitVec 64))
(declare-fun temp534_5 () (_ BitVec 64))
(declare-fun var663370 () (_ BitVec 64))
(declare-fun temp534_6 () (_ BitVec 64))
(declare-fun var1050422 () (_ BitVec 64))
(declare-fun var1249500 () (_ BitVec 64))
(declare-fun temp534_7 () (_ BitVec 64))
(declare-fun var1380695 () (_ BitVec 64))
(declare-fun temp534_8 () (_ BitVec 64))
(declare-fun var1380696 () (_ BitVec 64))
(declare-fun temp534_10 () (_ BitVec 64))
(declare-fun temp534_9 () (_ BitVec 64))
(declare-fun temp534_11 () (_ BitVec 64))
(declare-fun var1968154 () (_ BitVec 64))
(declare-fun temp534_12 () (_ BitVec 64))
(declare-fun var1968159 () (_ BitVec 64))
(declare-fun temp534_13 () (_ BitVec 64))
(declare-fun var1968161 () (_ BitVec 64))
(declare-fun temp534_14 () (_ BitVec 64))
(declare-fun temp534_15 () (_ BitVec 64))
(declare-fun var2558158 () (_ BitVec 64))
(declare-fun temp534_16 () (_ BitVec 64))
(declare-fun temp534_17 () (_ BitVec 64))
(declare-fun var2558188 () (_ BitVec 64))
(declare-fun var2558235 () (_ BitVec 64))
(declare-fun var2558156 () (_ BitVec 64))
(declare-fun var598213 () (_ BitVec 64))
(declare-fun var598214 () (_ BitVec 64))
(declare-fun temp534_18 () (_ BitVec 64))
(declare-fun var3478855 () (_ BitVec 64))
(declare-fun var3478859 () (_ BitVec 64))
(assert (= temp534_2 #x0000000000000000))
(assert (= temp534_1 temp534_2))
(assert (= temp534_4 #x0000000000000000))
(assert (= temp534_3 temp534_4))
(assert (= temp534_5 #x0000000000000005))
(assert (= var663370 temp534_5))
(assert (= temp534_6 #x0000000000000001))
(assert (= var1050422 temp534_6))
(assert (= var1249500 var1050422))
(assert (= temp534_7 #x0000000000000000))
(assert (= var1380695 temp534_7))
(assert (= temp534_8 #x0000000000000000))
(assert (= var1380696 temp534_8))
(assert (= temp534_10 #x0000000000000000))
(assert (= temp534_9 temp534_10))
(assert (= temp534_11 #x0000000000000000))
(assert (= var1968154 temp534_11))
(assert (= temp534_12 #x0000000000000001))
(assert (= var1968159 (bvand var1968154 temp534_12)))
(assert (= temp534_13 #x0000000000000000))
(assert (= var1968161
   (ite (= var1968159 temp534_13) #x0000000000000001 #x0000000000000000)))
(assert (= temp534_14 #x0000000000000001))
(assert (= var1968161 temp534_14))
(assert (= temp534_15 #x0000000000000001))
(assert (= var2558158 temp534_15))
(assert (= temp534_16 #x0000000000000000))
(assert (= temp534_17 #x0000000000000002))
(assert (= var2558188 (ite (= var2558158 #x0000000000000001) temp534_16 temp534_17)))
(assert (= var2558235 var2558188))
(assert (= var2558156 var2558235))
(assert (= var598213 var2558156))
(assert (= var598214 var598213))
(assert (= temp534_18 #x0000000000000005))
(assert (= var3478855 temp534_18))
(assert (= var3478859 var598214))
(model-add temp534_2 () (_ BitVec 64) #x0000000000000000)
(model-add temp534_1 () (_ BitVec 64) #x0000000000000000)
(model-add temp534_4 () (_ BitVec 64) #x0000000000000000)
(model-add temp534_3 () (_ BitVec 64) #x0000000000000000)
(model-add temp534_5 () (_ BitVec 64) #x0000000000000005)
(model-add var663370 () (_ BitVec 64) #x0000000000000005)
(model-add temp534_6 () (_ BitVec 64) #x0000000000000001)
(model-add var1050422 () (_ BitVec 64) #x0000000000000001)
(model-add var1249500 () (_ BitVec 64) #x0000000000000001)
(model-add temp534_7 () (_ BitVec 64) #x0000000000000000)
(model-add var1380695 () (_ BitVec 64) #x0000000000000000)
(model-add temp534_8 () (_ BitVec 64) #x0000000000000000)
(model-add var1380696 () (_ BitVec 64) #x0000000000000000)
(model-add temp534_10 () (_ BitVec 64) #x0000000000000000)
(model-add temp534_9 () (_ BitVec 64) #x0000000000000000)
(model-add temp534_11 () (_ BitVec 64) #x0000000000000000)
(model-add var1968154 () (_ BitVec 64) #x0000000000000000)
(model-add temp534_12 () (_ BitVec 64) #x0000000000000001)
(model-add var1968159 () (_ BitVec 64) #x0000000000000000)
(model-add temp534_13 () (_ BitVec 64) #x0000000000000000)
(model-add var1968161 () (_ BitVec 64) #x0000000000000001)
(model-add temp534_14 () (_ BitVec 64) #x0000000000000001)






